nbProcess=3;
nbJobs =8;
nbMchs =7;
Process1=[3,3,3,3,3,3,3,3];
pidle=[1,2,3,1,2,3,1];
EnergyS=[10,30,60,10,30,60,10];
TB=[10,15,20,10,15,20,10];
x=
[
[
[1,0,0,],
[1,0,0,],
[1,0,0,],
[1,0,0,],
[1,0,0,],
[0,0,0,],
[0,0,0,],
[0,0,0,],
],
[
[1,1,0,],
[0,1,0,],
[1,0,0,],
[1,0,0,],
[1,0,1,],
[1,0,0,],
[1,0,0,],
[0,0,0,],
],
[
[1,0,0,],
[1,1,0,],
[0,1,0,],
[0,1,0,],
[1,0,0,],
[1,1,0,],
[1,1,0,],
[1,0,0,],
],
[
[0,1,1,],
[0,0,0,],
[0,1,1,],
[0,0,1,],
[0,1,0,],
[1,1,0,],
[0,0,0,],
[1,0,0,],
],
[
[0,0,1,],
[0,0,1,],
[0,0,1,],
[0,1,0,],
[0,1,1,],
[0,1,1,],
[0,1,1,],
[0,1,1,],
],
[
[0,0,0,],
[0,0,1,],
[0,0,1,],
[0,0,1,],
[0,0,1,],
[0,0,1,],
[0,0,1,],
[0,1,1,],
],
[
[0,1,1,],
[0,0,1,],
[0,1,0,],
[0,0,0,],
[0,1,0,],
[0,0,1,],
[0,0,1,],
[0,0,1,],
],
];
ptime =
[
[
[247,0,0],
[214,0,0],
[87,0,0],
[87,0,0],
[128,0,0],
[0,0,0],
[0,0,0],
[0,0,0]
],
[
[223,130,0],
[0,66,0],
[62,0,0],
[65,0,0],
[123,0,100],
[145,0,0],
[157,0,0],
[0,0,0]
],
[
[100,0,0],
[150,87,0],
[0,180,0],
[0,250,0],
[145,0,0],
[320,123,0],
[145,124,0],
[257,0,0]
],
[
[0,140,150],
[0,0,0],
[0,105,190],
[0,0,145],
[0,65,0],
[154,150,0],
[0,0,0],
[245,0,0]
],
[
[0,0,160],
[0,0,178],
[0,0,100],
[0,173,0],
[0,47,110],
[0,192,120],
[0,168,145],
[0,268,145]
],
[
[0,0,0],
[0,0,95],
[0,0,153],
[0,0,136],
[0,0,85],
[0,0,240],
[0,0,165],
[0,224,165]
],
[
[0,123,200],
[0,0,150],
[0,145,0],
[0,0,0],
[0,86,0],
[0,0,180],
[0,0,178],
[0,0,178]
]
];
power1=
[
[
[4.2,0,0,],
[3.4,0,0,],
[4.5,0,0,],
[4.4,0,0,],
[3.4,0,0,],
[0,0,0,],
[0,0,0,],
[0,0,0,],
],
[
[4.1,3.5,0,],
[0,4.8,0,],
[3.4,0,0,],
[4.6,0,0,],
[4.2,0,4.3,],
[4,0,0,],
[3.8,0,0,],
[0,0,0,],
],
[
[4.6,0,0,],
[3.2,3.5,0,],
[0,3.7,0,],
[0,3.6,0,],
[4.7,0,0,],
[4,4.7,0,],
[4.4,4.3,0,],
[3.9,0,0,],
],
[
[0,3.9,4.2,],
[0,0,0,],
[0,3.9,4.7,],
[0,0,4,],
[0,3.2,0,],
[4.8,3.5,0,],
[0,0,0,],
[3.3,0,0,],
],
[
[0,0,4,],
[0,0,3.5,],
[0,0,4.2,],
[0,3.9,0,],
[0,3,4.2,],
[0,3.2,3.1,],
[0,3.5,3,],
[0,3.3,4.8,],
],
[
[0,0,0,],
[0,0,4.3,],
[0,0,4.5,],
[0,0,4.7,],
[0,0,3.1,],
[0,0,3.1,],
[0,0,3.6,],
[0,4.2,4.6,],
],
[
[0,3.1,3.6,],
[0,0,4.9,],
[0,4.1,0,],
[0,0,0,],
[0,3.2,0,],
[0,0,4.8,],
[0,0,3.4,],
[0,0,3.1,],
],
];